# Solution for model HR_Scheduling
# Objective value = 5.1085444369970355e+02
x[room_1,room_1,human] 0
x[room_1,room_1,robot] 0
x[room_1,room_2,human] 0
x[room_1,room_2,robot] 0
x[room_1,room_3,human] 0
x[room_1,room_3,robot] 0
x[room_1,room_4,human] 0
x[room_1,room_4,robot] 0
x[room_1,room_5,human] 0
x[room_1,room_5,robot] 0
x[room_1,room_6,human] 0
x[room_1,room_6,robot] 0
x[room_2,room_1,human] 0
x[room_2,room_1,robot] 0
x[room_2,room_2,human] 0
x[room_2,room_2,robot] 0
x[room_2,room_3,human] 0
x[room_2,room_3,robot] 0
x[room_2,room_4,human] 0
x[room_2,room_4,robot] 0
x[room_2,room_5,human] 0
x[room_2,room_5,robot] 0
x[room_2,room_6,human] 0
x[room_2,room_6,robot] 0
x[room_3,room_1,human] 0
x[room_3,room_1,robot] 0
x[room_3,room_2,human] 0
x[room_3,room_2,robot] 0
x[room_3,room_3,human] 0
x[room_3,room_3,robot] 0
x[room_3,room_4,human] 1
x[room_3,room_4,robot] 0
x[room_3,room_5,human] 0
x[room_3,room_5,robot] 0
x[room_3,room_6,human] 0
x[room_3,room_6,robot] 0
x[room_4,room_1,human] 0
x[room_4,room_1,robot] 0
x[room_4,room_2,human] 0
x[room_4,room_2,robot] 0
x[room_4,room_3,human] 0
x[room_4,room_3,robot] 0
x[room_4,room_4,human] 0
x[room_4,room_4,robot] 0
x[room_4,room_5,human] 0
x[room_4,room_5,robot] 0
x[room_4,room_6,human] 0
x[room_4,room_6,robot] 0
x[room_5,room_1,human] 0
x[room_5,room_1,robot] 0
x[room_5,room_2,human] 0
x[room_5,room_2,robot] 0
x[room_5,room_3,human] 0
x[room_5,room_3,robot] 0
x[room_5,room_4,human] 0
x[room_5,room_4,robot] 0
x[room_5,room_5,human] 0
x[room_5,room_5,robot] 0
x[room_5,room_6,human] 0
x[room_5,room_6,robot] 0
x[room_6,room_1,human] 0
x[room_6,room_1,robot] 0
x[room_6,room_2,human] 0
x[room_6,room_2,robot] 0
x[room_6,room_3,human] 0
x[room_6,room_3,robot] 0
x[room_6,room_4,human] 0
x[room_6,room_4,robot] 1
x[room_6,room_5,human] 0
x[room_6,room_5,robot] 0
x[room_6,room_6,human] 0
x[room_6,room_6,robot] 0
start[room_1,human] 0
start[room_1,robot] 0
start[room_2,human] 0
start[room_2,robot] 0
start[room_3,human] 1
start[room_3,robot] 0
start[room_4,human] 0
start[room_4,robot] 0
start[room_5,human] 0
start[room_5,robot] 0
start[room_6,human] 0
start[room_6,robot] 1
end[room_1,human] 0
end[room_1,robot] 0
end[room_2,human] 0
end[room_2,robot] 0
end[room_3,human] 0
end[room_3,robot] 0
end[room_4,human] 1
end[room_4,robot] 1
end[room_5,human] 0
end[room_5,robot] 0
end[room_6,human] 0
end[room_6,robot] 0
t_s[room_1] 0
t_s[room_2] 0
t_s[room_3] 49
t_s[room_4] 4.2793668180319946e+02
t_s[room_5] 0
t_s[room_6] 0
T_f 5.1085444369970355e+02
